Solution in this episode: [307, 68, 171, 17, 52, 102, 154, 119, 324, 272, 1, 476, 392, 357, 239, 289, 341, 425, 409, 442, 86, 204, 460, 136, 35, 374, 222, 493, 256, 187, 70, 309, 173, 20, 77, 316, 80, 53, 104, 319, 84, 321, 155, 123, 180, 61, 327, 276, 181, 2, 479, 125, 27, 112, 184, 394, 359, 241, 291, 484, 163, 128, 64, 342, 428, 132, 330, 65, 411, 444, 489, 398, 5, 87, 207, 30, 333, 133, 461, 138, 279, 10, 246, 367, 115, 37, 376, 224, 496, 491, 431, 299, 249, 165, 258, 190, 253, 401, 31, 169, 417, 346, 435, 336, 116, 421, 211, 448, 13, 281, 338, 42, 95, 285, 45, 349, 368, 50, 424, 230, 469, 351, 213, 373, 15, 302, 502, 146, 451, 355, 286, 234, 404, 262, 381, 305, 217, 194, 265, 436, 235, 439, 96, 407, 100, 219, 384, 471, 505, 474, 507, 147, 150, 266, 196, 454, 458, 270, 385, 389, 198, 201]
